p tw 30 45
1 4
1 16
1 27
2 14
2 28
2 30
3 5
3 6
3 9
4 27
4 29
5 6
5 26
6 21
7 10
7 11
7 12
8 17
8 24
8 30
9 18
9 22
10 24
10 29
11 20
11 25
12 21
12 26
13 17
13 20
13 21
14 15
14 20
15 19
15 22
16 22
16 25
17 26
18 23
18 25
19 28
19 30
23 27
23 28
24 29
